n = 10; 

m=14; 


31	80	81	66	98	91	79	77	52	62
79	31	69	68	49	50	12	11	24	7
22	40	44	8	44	60	19	51	46	36
60	2	13	16	29	3	33	15	60	36
2	50	26	55	36	8	37	8	55	68
24	34	22	68	42	70	34	70	39	50
16	24	3	3	59	18	57	33	42	42
9	20	14	56	31	31	7	12	14	69
20	44	49	29	26	38	6	7	10	41
40	6	72	21	24	57	65	18	20	53
18	19	16	9	11	45	31	55	53	25
16	23	50	34	56	6	19	20	17	66
46	56	20	7	42	50	62	21	62	13
22	40	44	8	44	60	19	51	46	36
 
